(set-logic HORN)
(set-info :source |
    Benchmark: C_VC
    Output by Princess (http://www.philipp.ruemmer.org/princess.shtml)
|)
(set-info :status unknown)
(declare-fun inv_main11 (Int Int Int Int Int) Bool)
(declare-fun inv_main12 (Int Int Int) Bool)
(assert (forall ((var0 Int) (var1 Int) (var2 Int) (var3 Int) (var4 Int)) (or (not (inv_main11 var0 var1 var2 var3 var4)) (inv_main12 var0 var2 var3))))
(assert (forall ((var0 Int) (var1 Int) (var2 Int) (var3 Int) (var4 Int) (var5 Int) (var6 Int) (var7 Int) (var8 Int)) (or (not (and (inv_main11 var0 (+ (+ var0 var6) (* (- 1) var7)) var5 var6 var7) (and (and (and (and (not (= var2 0)) (= var3 (+ (+ var0 var6) (* (- 1) var7)))) (= (+ var6 1) var4)) (= (+ var7 1) var8)) (= (+ var5 1) var1)))) (inv_main11 var0 var3 var1 var4 var8))))
(assert (forall ((var0 Int) (var1 Int) (var2 Int) (var3 Int) (var4 Int) (var5 Int) (var6 Int) (var7 Int) (var8 Int)) (or (not (and (inv_main11 var0 var3 var5 var6 var8) (and (and (and (and (not (= var3 (+ (+ var0 var6) (* (- 1) var8)))) (not (= var2 0))) (= (+ var5 1) var1)) (= (+ var6 (- 1)) var7)) (= (+ var8 1) var4)))) (inv_main11 var0 var3 var1 var7 var4))))
(assert (forall ((var0 Int) (var1 Int) (var2 Int) (var3 Int) (var4 Int) (var5 Int)) (or (not (and (inv_main12 var0 var2 var3) (and (and (not (= var5 0)) (= (+ var2 (- 1)) var1)) (= (+ var3 (- 1)) var4)))) (inv_main12 var0 var1 var4))))
(assert (forall ((var0 Int) (var1 Int) (var2 Int) (var3 Int) (var4 Int) (var5 Int)) (or (not (and (inv_main12 var1 var3 var4) (and (and (not (= var5 0)) (= (+ var1 var4) var0)) (= 0 var2)))) (inv_main11 var1 var0 var3 var4 var2))))
(assert (forall ((var0 Int) (var1 Int) (var2 Int) (var3 Int) (var4 Int) (var5 Int)) (or (not (and (and (and (and (not (= var3 0)) (= var2 var0)) (= 0 var1)) (= 0 var4)) (= 0 var5))) (inv_main11 var2 var0 var1 var4 var5))))
(assert (forall ((var0 Int) (var1 Int) (var2 Int)) (not (and (inv_main12 var0 var1 var2) (not (= var1 var2))))))
(check-sat)
